files/upTests/_zothers/tupley17/0001.eprime.solution
language ESSENCE' 1.0
$ minion Nodes: 1
$ minion TotalTime: 0.000638
$ Savile Row TotalTime: 0.342
letting pain_tuple1_tuple2_tuple2 be [6, 7]
letting pain_tuple2 be [8, 9]
letting pain_tuple1_tuple2_tuple1 be [5, 4]
letting pain_tuple1_tuple1_Explicit_Explicit be [[[2]], 
[[1]]]
